
50
72816

13912 7144
1739 893
5217 2679
8695 4465
10434 5358
15651 8037
6956 3572
11214 2682
2492 596
13912 7144
3478 1786
6956 3572
3478 1786
6956 3572
3478 1786
6230 1490
3738 894
17390 8930
17390 8930
5217 2679
8722 2086
12460 2980
3738 894
2492 596
3738 894
17390 8930
8722 2086
3478 1786
9968 2384
8722 2086
8722 2086
2492 596
13912 7144
1739 893
3738 894
1246 298
10434 5358
3738 894
1739 893
4984 1192
5217 2679
12460 2980
6230 1490
13912 7144
3478 1786
4984 1192
7476 1788
8722 2086
6230 1490
6230 1490
